(set-logic HORN)
(set-info :source |
    Benchmark: C_VC
    Output by Princess (http://www.philipp.ruemmer.org/princess.shtml)
|)
(set-info :status unsat)
;===============================================================================
; Encoding of Heap sorts and operations
;-------------------------------------------------------------------------------
(define-sort Addr() Int)
(declare-datatypes ((AddrRange 0))
                   (((AddrRange (AddrRangeStart Addr) (AddrRangeSize Int)))))

(declare-datatypes ((HeapObject 0))
                   (((O_Int (getInt Int)) (O_UInt (getUInt Int)) (O_Addr (getAddr Addr)) (defObj))))
(declare-datatypes ((BatchAllocResHeap 0) (AllocResHeap 0) (Heap 0))
                   (((BatchAllocResHeap   (newBatchHeap Heap) (newAddrRange AddrRange)))
                   ((AllocResHeap   (newHeap Heap) (newAddr Addr)))
                    ((HeapCtor (HeapSize Int)
                               (HeapContents (Array Addr HeapObject))))))
(define-fun nullAddr  () Addr 0)
(define-fun validHeap     ((h Heap) (p Addr)) Bool
  (and (>= (HeapSize h) p) (> p 0)))
(define-fun emptyHeap () Heap (
  HeapCtor 0 (( as const (Array Addr HeapObject)) defObj)))
(define-fun readHeap ((h Heap) (p Addr)) HeapObject
  (ite (validHeap h p)
       (select (HeapContents h) p)
       defObj))
(define-fun writeHeap ((h Heap) (p Addr) (o HeapObject)) Heap
  (ite (validHeap h p)
       (HeapCtor (HeapSize h) (store (HeapContents h) p o))
       h))
(define-fun allocHeap   ((h Heap) (o HeapObject)) AllocResHeap
  (AllocResHeap (HeapCtor (+ 1 (HeapSize h))
                    (store (HeapContents h) (+ 1 (HeapSize h)) o))
          (+ 1 (HeapSize h))))
(define-fun Heap-eq     ((h1 Heap) (h2 Heap)) Bool
  (forall ((p Addr))
          (and (= (validHeap h1 p) (validHeap h2 p))
               (= (readHeap h1 p) (readHeap h2 p)))))
(define-fun nthAddrRange((ar AddrRange) (n Int)) Addr
  (ite (and (>= n 0) (< n (AddrRangeSize ar)))
       (+ (AddrRangeStart ar) n)
       nullAddr))
(define-fun withinHeap ((ar AddrRange ) (p Addr)) Bool
  (and (>= p (AddrRangeStart ar)) (< p (+ (AddrRangeStart ar) (AddrRangeSize ar)))))

(declare-fun batchAllocHeap     (Heap Heap HeapObject Int Int) Bool)
(declare-fun batchAllocPostHeap (Heap Heap HeapObject Int) Bool)

(assert (forall ((h1 Heap) (h2 Heap) (o HeapObject) (n1 Int) (n2 Int))
                (=> (and (> n2 0) (batchAllocHeap h1 h2 o n1 n2))
                   (batchAllocHeap h1 (newHeap (allocHeap h2 o)) o n1 (- n2 1)))))
(assert (forall ((h1 Heap) (h2 Heap) (o HeapObject) (n1 Int) (n2 Int))
                (=> (and (<= n2 0) (batchAllocHeap h1 h2 o n1 n2))
                   (batchAllocPostHeap h1 h2 o n1))))

(declare-fun batchWriteHeap     (Heap Heap Addr Addr HeapObject Int Int) Bool)
(declare-fun batchWritePostHeap (Heap Heap Addr HeapObject Int) Bool)

(assert (forall ((h1 Heap) (h2 Heap) (a1 Addr) (a2 Addr) (o HeapObject) (n1 Int) (n2 Int))
                (=> (and (> n2 0) (batchWriteHeap h1 h2 a1 a2 o n1 n2))
                   (batchWriteHeap h1 (writeHeap h2 a2 o) a1 (+ a2 1) o n1 (- n2 1)))))
(assert (forall ((h1 Heap) (h2 Heap) (a1 Addr) (a2 Addr) (o HeapObject) (n1 Int) (n2 Int))
                (=> (and (<= n2 0) (batchWriteHeap h1 h2 a1 a2 o n1 n2))
                   (batchWritePostHeap h1 h2 a1 o n1))))

;===============================================================================
(declare-fun inv_main10 (Heap Int Int Int Int Int Int Int AddrRange) Bool)
(declare-fun inv_main24 (Heap Int Int Int Int Int Int Int AddrRange) Bool)
(declare-fun inv_main39 (Heap Int Int Int Int Int Int Int AddrRange) Bool)
(declare-fun inv_main4 (Heap Int Int Int Int Int Int Int AddrRange) Bool)
(declare-fun inv_main40 (Heap Int Int Int Int Int Int Int AddrRange) Bool)
(declare-fun inv_main43 (Heap Int Int Int Int Int Int Int AddrRange) Bool)
(declare-fun inv_main46 (Heap Int Int Int Int Int Int Int AddrRange AddrRange Int) Bool)
(declare-fun inv_main59 (Heap Int Int Int Int Int Int Int AddrRange) Bool)
(declare-fun inv_main61 (Heap Int Int Int Int Int Int Int AddrRange) Bool)
(declare-fun inv_main9 (Heap Int Int Int Int Int Int Int AddrRange) Bool)
(assert (forall ((var0 Int) (var1 Int) (var2 Int) (var3 Int) (var4 Int) (var5 Int) (var6 Int) (var7 AddrRange) (var8 Int) (var9 Heap) (var10 Heap)) (or (not (and (batchAllocPostHeap emptyHeap var9 (O_Int var8) 1000) (and (and true (= var10 emptyHeap)) (= var7 (AddrRange (ite (<= 0 999) (+ (HeapSize emptyHeap) 1) (HeapSize emptyHeap)) 1000))))) (inv_main4 var9 var6 var5 var4 var3 var2 var1 var0 var7))))
(assert (forall ((var0 Int) (var1 Int) (var2 Int) (var3 Int) (var4 Int) (var5 Int) (var6 Int) (var7 AddrRange) (var8 Int) (var9 Heap) (var10 Heap)) (or (not (and (and true (= var10 emptyHeap)) (= var7 (AddrRange (ite (<= 0 999) (+ (HeapSize emptyHeap) 1) (HeapSize emptyHeap)) 1000)))) (batchAllocHeap emptyHeap emptyHeap (O_Int var8) 1000 1000))))
(assert (forall ((var0 AddrRange) (var1 AddrRange) (var2 Int) (var3 Int) (var4 Int) (var5 Int) (var6 Int) (var7 Int) (var8 Int) (var9 Heap)) (or (not (and (and (inv_main43 var9 var8 var7 var6 var5 var4 var3 var2 var1) (= var0 (AddrRange (nthAddrRange var1 var8) (+ (AddrRangeSize var1) (* (- 1) var8))))) (is-O_Int (readHeap var9 (nthAddrRange var1 var8))))) (inv_main46 var9 var8 var7 var6 var5 var4 var3 var2 var1 var0 var8))))
(assert (forall ((var0 AddrRange) (var1 Int) (var2 Int) (var3 Int) (var4 Int) (var5 Int) (var6 Int) (var7 Int) (var8 Heap) (var9 Int) (var10 AddrRange) (var11 Int) (var12 Int) (var13 Int) (var14 Int) (var15 Int) (var16 Int) (var17 Int) (var18 Heap)) (or (not (and (and (and (and (and (and (and (and (and (and (and (and (inv_main40 var18 var17 var16 var15 var14 var13 var12 var11 var10) (= var9 (getInt (readHeap var18 (nthAddrRange var10 var17))))) (= var0 var10)) (= var1 var11)) (= var2 var12)) (= var3 var13)) (= var4 var14)) (= var5 var15)) (= var6 var16)) (= var7 var17)) (= var8 var18)) (is-O_Int (readHeap var18 (nthAddrRange var10 var17)))) (= var9 1))) (inv_main43 var8 var7 var6 var5 var4 var3 var2 var1 var0))))
(assert (forall ((var0 AddrRange) (var1 Int) (var2 Int) (var3 Int) (var4 Int) (var5 Int) (var6 Int) (var7 Int) (var8 Heap) (var9 Int) (var10 Int) (var11 Int) (var12 AddrRange) (var13 Int) (var14 Int) (var15 Int) (var16 Int) (var17 Int) (var18 Int) (var19 Int) (var20 Heap)) (or (not (and (and (and (and (and (and (and (and (and (and (and (and (and (and (and (and (inv_main39 var20 var19 var18 var17 var16 var15 var14 var13 var12) (= var9 (getInt (readHeap var20 (nthAddrRange var12 var18))))) (= var0 var12)) (= var1 var13)) (= var2 var14)) (= var3 var15)) (= var4 var16)) (= var5 var17)) (= var6 var18)) (= var7 var19)) (= var8 var20)) (is-O_Int (readHeap var20 (nthAddrRange var12 var18)))) (= var9 0)) (= var10 (* (- 1) 1))) (<= 0 var11)) (not (<= 0 (+ (+ (* (- 1) 20) var11) (* (- 1) 1))))) (<= 0 (+ var11 (* (- 1) 1))))) (inv_main61 var8 var7 var6 var10 var4 var3 var2 var11 var0))))
(assert (forall ((var0 Int) (var1 Int) (var2 AddrRange) (var3 Int) (var4 Int) (var5 Int) (var6 Int) (var7 Int) (var8 Int) (var9 Int) (var10 Heap)) (or (not (and (and (and (and (and (inv_main24 var10 var9 var8 var7 var6 var5 var4 var3 var2) (= var0 0)) (<= 0 (+ (+ (* (- 1) var6) var5) (* (- 1) 1)))) (not (= var1 1))) (not (= var1 0))) (not (= var1 (* (- 1) 1))))) (inv_main39 var10 var9 var0 var1 var6 var5 var1 var3 var2))))
(assert (forall ((var0 Int) (var1 Int) (var2 AddrRange) (var3 AddrRange) (var4 AddrRange) (var5 Int) (var6 Int) (var7 Int) (var8 Int) (var9 Int) (var10 Int) (var11 Int) (var12 Heap) (var13 Int) (var14 AddrRange) (var15 AddrRange) (var16 Int) (var17 Int) (var18 Int) (var19 Int) (var20 Int) (var21 Int) (var22 Int) (var23 Heap)) (or (not (and (and (and (and (and (and (and (and (and (and (and (and (and (and (inv_main46 var23 var22 var21 var20 var19 var18 var17 var16 var15 var14 var13) (= var0 (+ var10 1))) (= var1 1001)) (= var2 (AddrRange (nthAddrRange var15 (+ var13 1)) (+ (AddrRangeSize var15) (* (- 1) (+ var13 1)))))) (= var3 var14)) (= var4 var15)) (= var5 var16)) (= var6 var17)) (= var7 var18)) (= var8 var19)) (= var9 var20)) (= var10 var21)) (= var11 var22)) (= var12 var23)) (is-O_Int (readHeap var23 (nthAddrRange var15 (+ var13 1)))))) (inv_main39 var12 var11 var0 var9 var8 var7 var6 var5 var4))))
(assert (forall ((var0 Int) (var1 AddrRange) (var2 Int) (var3 Int) (var4 Int) (var5 Int) (var6 Int) (var7 Int) (var8 Int) (var9 Heap) (var10 Int) (var11 AddrRange) (var12 Int) (var13 Int) (var14 Int) (var15 Int) (var16 Int) (var17 Int) (var18 Int) (var19 Heap)) (or (not (and (and (and (and (and (and (and (and (and (and (and (and (and (inv_main40 var19 var18 var17 var16 var15 var14 var13 var12 var11) (= var0 (+ var7 1))) (= var10 (getInt (readHeap var19 (nthAddrRange var11 var18))))) (= var1 var11)) (= var2 var12)) (= var3 var13)) (= var4 var14)) (= var5 var15)) (= var6 var16)) (= var7 var17)) (= var8 var18)) (= var9 var19)) (is-O_Int (readHeap var19 (nthAddrRange var11 var18)))) (not (= var10 1)))) (inv_main39 var9 var8 var0 var6 var5 var4 var3 var2 var1))))
(assert (forall ((var0 Int) (var1 AddrRange) (var2 Int) (var3 Int) (var4 Int) (var5 Int) (var6 Int) (var7 Int) (var8 Int) (var9 Heap) (var10 AddrRange) (var11 Int) (var12 Int) (var13 Int) (var14 Int) (var15 Int) (var16 Int) (var17 Int) (var18 Heap)) (or (not (and (and (and (and (and (and (and (and (and (and (and (and (inv_main59 var18 var17 var16 var15 var14 var13 var12 var11 var10) (= var0 (+ var5 1))) (= var1 var10)) (= var2 var11)) (= var3 var12)) (= var4 var13)) (= var5 var14)) (= var6 var15)) (= var7 var16)) (= var8 var17)) (= var9 (writeHeap var18 (nthAddrRange var10 var17) (O_Int 0)))) (is-O_Int (readHeap var18 (nthAddrRange var10 var17)))) (is-O_Int (readHeap var18 (nthAddrRange var10 var17))))) (inv_main24 var9 var8 var7 var6 var0 var4 var3 var2 var1))))
(assert (forall ((var0 Int) (var1 AddrRange) (var2 Int) (var3 Int) (var4 Int) (var5 Int) (var6 Int) (var7 Int) (var8 Int) (var9 Heap) (var10 AddrRange) (var11 Int) (var12 Int) (var13 Int) (var14 Int) (var15 Int) (var16 Int) (var17 Int) (var18 Heap)) (or (not (and (and (and (and (and (and (and (and (and (and (and (and (inv_main61 var18 var17 var16 var15 var14 var13 var12 var11 var10) (= var0 (+ var5 1))) (= var1 var10)) (= var2 var11)) (= var3 var12)) (= var4 var13)) (= var5 var14)) (= var6 var15)) (= var7 var16)) (= var8 var17)) (= var9 (writeHeap var18 (nthAddrRange var10 var17) (O_Int (* (- 1) 1))))) (is-O_Int (readHeap var18 (nthAddrRange var10 var17)))) (is-O_Int (readHeap var18 (nthAddrRange var10 var17))))) (inv_main24 var9 var8 var7 var6 var0 var4 var3 var2 var1))))
(assert (forall ((var0 Int) (var1 Int) (var2 AddrRange) (var3 Int) (var4 Int) (var5 Int) (var6 Int) (var7 Int) (var8 Int) (var9 Int) (var10 Heap)) (or (not (and (and (and (and (and (inv_main24 var10 var9 var8 var7 var6 var5 var4 var3 var2) (= var0 (+ var6 1))) (<= 0 (+ (+ (* (- 1) var6) var5) (* (- 1) 1)))) (not (= var1 1))) (not (= var1 0))) (= var1 (* (- 1) 1)))) (inv_main24 var10 var9 var8 var1 var0 var5 var1 var3 var2))))
(assert (forall ((var0 Int) (var1 AddrRange) (var2 Int) (var3 Int) (var4 Int) (var5 Int) (var6 Int) (var7 Int) (var8 Int) (var9 Heap) (var10 Int) (var11 Int) (var12 AddrRange) (var13 Int) (var14 Int) (var15 Int) (var16 Int) (var17 Int) (var18 Int) (var19 Int) (var20 Heap)) (or (not (and (and (and (and (and (and (and (and (and (and (and (and (and (and (inv_main39 var20 var19 var18 var17 var16 var15 var14 var13 var12) (= var0 (+ var5 1))) (= var10 (getInt (readHeap var20 (nthAddrRange var12 var18))))) (= var1 var12)) (= var2 var13)) (= var3 var14)) (= var4 var15)) (= var5 var16)) (= var6 var17)) (= var7 var18)) (= var8 var19)) (= var9 var20)) (is-O_Int (readHeap var20 (nthAddrRange var12 var18)))) (= var10 0)) (not (= var11 (* (- 1) 1))))) (inv_main24 var9 var8 var7 var11 var0 var4 var3 var2 var1))))
(assert (forall ((var0 Int) (var1 AddrRange) (var2 Int) (var3 Int) (var4 Int) (var5 Int) (var6 Int) (var7 Int) (var8 Int) (var9 Heap) (var10 Int) (var11 Int) (var12 Int) (var13 AddrRange) (var14 Int) (var15 Int) (var16 Int) (var17 Int) (var18 Int) (var19 Int) (var20 Int) (var21 Heap)) (or (not (and (and (and (and (and (and (and (and (and (and (and (and (and (and (and (and (and (inv_main39 var21 var20 var19 var18 var17 var16 var15 var14 var13) (= var0 (+ var5 1))) (= var10 (getInt (readHeap var21 (nthAddrRange var13 var19))))) (= var1 var13)) (= var2 var14)) (= var3 var15)) (= var4 var16)) (= var5 var17)) (= var6 var18)) (= var7 var19)) (= var8 var20)) (= var9 var21)) (is-O_Int (readHeap var21 (nthAddrRange var13 var19)))) (= var10 0)) (= var11 (* (- 1) 1))) (<= 0 var12)) (not (<= 0 (+ (+ (* (- 1) 20) var12) (* (- 1) 1))))) (not (<= 0 (+ var12 (* (- 1) 1)))))) (inv_main24 var9 var8 var7 var11 var0 var4 var3 var12 var1))))
(assert (forall ((var0 Int) (var1 Int) (var2 Int) (var3 Int) (var4 AddrRange) (var5 Int) (var6 Int) (var7 Int) (var8 Int) (var9 Int) (var10 Int) (var11 Int) (var12 Heap)) (or (not (and (and (and (and (and (and (inv_main24 var12 var11 var10 var9 var8 var7 var6 var5 var4) (= var0 0)) (= var1 (+ var11 1))) (not (<= 0 (+ (+ (* (- 1) var8) var7) (* (- 1) 1))))) (<= 0 (+ (+ (* (- 1) (+ var11 1)) 1000) (* (- 1) 1)))) (= var2 0)) (not (<= 0 (+ (* (- 1) var3) (* (- 1) 1)))))) (inv_main24 var12 var1 var10 var2 var0 var3 var6 var5 var4))))
(assert (forall ((var0 Int) (var1 Int) (var2 AddrRange) (var3 Int) (var4 Int) (var5 Int) (var6 Int) (var7 Int) (var8 Int) (var9 Int) (var10 Heap) (var11 Int) (var12 Int) (var13 Int) (var14 AddrRange) (var15 Int) (var16 Int) (var17 Int) (var18 Int) (var19 Int) (var20 Int) (var21 Int) (var22 Heap)) (or (not (and (and (and (and (and (and (and (and (and (and (and (and (and (and (and (and (inv_main9 var22 var21 var20 var19 var18 var17 var16 var15 var14) (= var0 0)) (= var1 0)) (= var2 var14)) (= var3 var15)) (= var4 var16)) (= var5 var17)) (= var6 var18)) (= var7 var19)) (= var8 var20)) (= var11 var21)) (= var10 (writeHeap var22 (nthAddrRange var14 var21) (O_Int var9)))) (is-O_Int (readHeap var22 (nthAddrRange var14 var21)))) (is-O_Int (readHeap var22 (nthAddrRange var14 var21)))) (not (<= 0 (+ (+ (* (- 1) (+ var11 1)) 1000) (* (- 1) 1))))) (= var12 0)) (not (<= 0 (+ (* (- 1) var13) (* (- 1) 1)))))) (inv_main24 var10 var1 var8 var12 var0 var13 var4 var3 var2))))
(assert (forall ((var0 Int) (var1 AddrRange) (var2 Int) (var3 Int) (var4 Int) (var5 Int) (var6 Int) (var7 Int) (var8 Int) (var9 Heap)) (or (not (and (inv_main4 var9 var8 var7 var6 var5 var4 var3 var2 var1) (= var0 0))) (inv_main9 var9 var0 var7 var6 var5 var4 var3 var2 var1))))
(assert (forall ((var0 Int) (var1 AddrRange) (var2 Int) (var3 Int) (var4 Int) (var5 Int) (var6 Int) (var7 Int) (var8 Int) (var9 Heap) (var10 Int) (var11 AddrRange) (var12 Int) (var13 Int) (var14 Int) (var15 Int) (var16 Int) (var17 Int) (var18 Int) (var19 Heap)) (or (not (and (and (and (and (and (and (and (and (and (and (and (and (and (inv_main9 var19 var18 var17 var16 var15 var14 var13 var12 var11) (= var0 (+ var10 1))) (= var1 var11)) (= var2 var12)) (= var3 var13)) (= var4 var14)) (= var5 var15)) (= var6 var16)) (= var7 var17)) (= var10 var18)) (= var9 (writeHeap var19 (nthAddrRange var11 var18) (O_Int var8)))) (is-O_Int (readHeap var19 (nthAddrRange var11 var18)))) (is-O_Int (readHeap var19 (nthAddrRange var11 var18)))) (<= 0 (+ (+ (* (- 1) (+ var10 1)) 1000) (* (- 1) 1))))) (inv_main9 var9 var0 var7 var6 var5 var4 var3 var2 var1))))
(assert (forall ((var0 AddrRange) (var1 Int) (var2 Int) (var3 Int) (var4 Int) (var5 Int) (var6 Int) (var7 Int) (var8 Heap) (var9 Int) (var10 AddrRange) (var11 Int) (var12 Int) (var13 Int) (var14 Int) (var15 Int) (var16 Int) (var17 Int) (var18 Heap)) (or (not (and (and (and (and (and (and (and (and (and (and (and (and (inv_main39 var18 var17 var16 var15 var14 var13 var12 var11 var10) (= var9 (getInt (readHeap var18 (nthAddrRange var10 var16))))) (= var0 var10)) (= var1 var11)) (= var2 var12)) (= var3 var13)) (= var4 var14)) (= var5 var15)) (= var6 var16)) (= var7 var17)) (= var8 var18)) (is-O_Int (readHeap var18 (nthAddrRange var10 var16)))) (not (= var9 0)))) (inv_main40 var8 var7 var6 var5 var4 var3 var2 var1 var0))))
(assert (forall ((var0 AddrRange) (var1 Int) (var2 Int) (var3 Int) (var4 Int) (var5 Int) (var6 Int) (var7 Int) (var8 Heap) (var9 Int) (var10 Int) (var11 Int) (var12 AddrRange) (var13 Int) (var14 Int) (var15 Int) (var16 Int) (var17 Int) (var18 Int) (var19 Int) (var20 Heap)) (or (not (and (and (and (and (and (and (and (and (and (and (and (and (and (and (and (inv_main39 var20 var19 var18 var17 var16 var15 var14 var13 var12) (= var9 (getInt (readHeap var20 (nthAddrRange var12 var18))))) (= var0 var12)) (= var1 var13)) (= var2 var14)) (= var3 var15)) (= var4 var16)) (= var5 var17)) (= var6 var18)) (= var7 var19)) (= var8 var20)) (is-O_Int (readHeap var20 (nthAddrRange var12 var18)))) (= var9 0)) (= var10 (* (- 1) 1))) (<= 0 var11)) (<= 0 (+ (+ (* (- 1) 20) var11) (* (- 1) 1))))) (inv_main59 var8 var7 var6 var10 var4 var3 var2 var11 var0))))
(assert (forall ((var0 Int) (var1 AddrRange) (var2 Int) (var3 Int) (var4 Int) (var5 Int) (var6 Int) (var7 Int) (var8 Int) (var9 Heap)) (or (not (and (and (and (inv_main24 var9 var8 var7 var6 var5 var4 var3 var2 var1) (= var0 (+ var8 1))) (not (<= 0 (+ (+ (* (- 1) var5) var4) (* (- 1) 1))))) (not (<= 0 (+ (+ (* (- 1) (+ var8 1)) 1000) (* (- 1) 1)))))) (inv_main10 var9 var0 var7 var6 var5 var4 var3 var2 var1))))
(assert (forall ((var0 AddrRange) (var1 Int) (var2 Int) (var3 Int) (var4 Int) (var5 Int) (var6 Int) (var7 Int) (var8 Heap)) (not (and (inv_main9 var8 var7 var6 var5 var4 var3 var2 var1 var0) (not (is-O_Int (readHeap var8 (nthAddrRange var0 var7))))))))
(assert (forall ((var0 AddrRange) (var1 Int) (var2 Int) (var3 Int) (var4 Int) (var5 Int) (var6 Int) (var7 Int) (var8 Heap)) (not (and (and (inv_main9 var8 var7 var6 var5 var4 var3 var2 var1 var0) (not (withinHeap var0 (nthAddrRange var0 var7)))) (is-O_Int (readHeap var8 (nthAddrRange var0 var7)))))))
(assert (forall ((var0 AddrRange) (var1 Int) (var2 Int) (var3 Int) (var4 Int) (var5 Int) (var6 Int) (var7 Int) (var8 Heap)) (not (and (and (inv_main9 var8 var7 var6 var5 var4 var3 var2 var1 var0) (not (is-O_Int (readHeap var8 (nthAddrRange var0 var7))))) (is-O_Int (readHeap var8 (nthAddrRange var0 var7)))))))
(assert (forall ((var0 AddrRange) (var1 Int) (var2 Int) (var3 Int) (var4 Int) (var5 Int) (var6 Int) (var7 Int) (var8 Heap)) (not (and (inv_main39 var8 var7 var6 var5 var4 var3 var2 var1 var0) (not (is-O_Int (readHeap var8 (nthAddrRange var0 var6))))))))
(assert (forall ((var0 AddrRange) (var1 Int) (var2 Int) (var3 Int) (var4 Int) (var5 Int) (var6 Int) (var7 Int) (var8 Heap)) (not (and (and (inv_main39 var8 var7 var6 var5 var4 var3 var2 var1 var0) (not (withinHeap var0 (nthAddrRange var0 var6)))) (is-O_Int (readHeap var8 (nthAddrRange var0 var6)))))))
(assert (forall ((var0 AddrRange) (var1 Int) (var2 Int) (var3 Int) (var4 Int) (var5 Int) (var6 Int) (var7 Int) (var8 Heap)) (not (and (inv_main40 var8 var7 var6 var5 var4 var3 var2 var1 var0) (not (is-O_Int (readHeap var8 (nthAddrRange var0 var7))))))))
(assert (forall ((var0 AddrRange) (var1 Int) (var2 Int) (var3 Int) (var4 Int) (var5 Int) (var6 Int) (var7 Int) (var8 Heap)) (not (and (and (inv_main40 var8 var7 var6 var5 var4 var3 var2 var1 var0) (not (withinHeap var0 (nthAddrRange var0 var7)))) (is-O_Int (readHeap var8 (nthAddrRange var0 var7)))))))
(assert (forall ((var0 AddrRange) (var1 Int) (var2 Int) (var3 Int) (var4 Int) (var5 Int) (var6 Int) (var7 Int) (var8 Heap)) (not (and (inv_main43 var8 var7 var6 var5 var4 var3 var2 var1 var0) (not (is-O_Int (readHeap var8 (nthAddrRange var0 var7))))))))
(assert (forall ((var0 AddrRange) (var1 Int) (var2 Int) (var3 Int) (var4 Int) (var5 Int) (var6 Int) (var7 Int) (var8 Heap)) (not (and (and (inv_main43 var8 var7 var6 var5 var4 var3 var2 var1 var0) (not (withinHeap var0 (nthAddrRange var0 var7)))) (is-O_Int (readHeap var8 (nthAddrRange var0 var7)))))))
(assert (forall ((var0 Int) (var1 AddrRange) (var2 AddrRange) (var3 Int) (var4 Int) (var5 Int) (var6 Int) (var7 Int) (var8 Int) (var9 Int) (var10 Heap)) (not (and (inv_main46 var10 var9 var8 var7 var6 var5 var4 var3 var2 var1 var0) (not (is-O_Int (readHeap var10 (nthAddrRange var2 (+ var0 1)))))))))
(assert (forall ((var0 Int) (var1 AddrRange) (var2 AddrRange) (var3 Int) (var4 Int) (var5 Int) (var6 Int) (var7 Int) (var8 Int) (var9 Int) (var10 Heap)) (not (and (and (inv_main46 var10 var9 var8 var7 var6 var5 var4 var3 var2 var1 var0) (not (withinHeap var2 (nthAddrRange var2 (+ var0 1))))) (is-O_Int (readHeap var10 (nthAddrRange var2 (+ var0 1))))))))
(assert (forall ((var0 AddrRange) (var1 Int) (var2 Int) (var3 Int) (var4 Int) (var5 Int) (var6 Int) (var7 Int) (var8 Heap)) (not (and (inv_main59 var8 var7 var6 var5 var4 var3 var2 var1 var0) (not (is-O_Int (readHeap var8 (nthAddrRange var0 var7))))))))
(assert (forall ((var0 AddrRange) (var1 Int) (var2 Int) (var3 Int) (var4 Int) (var5 Int) (var6 Int) (var7 Int) (var8 Heap)) (not (and (and (inv_main59 var8 var7 var6 var5 var4 var3 var2 var1 var0) (not (withinHeap var0 (nthAddrRange var0 var7)))) (is-O_Int (readHeap var8 (nthAddrRange var0 var7)))))))
(assert (forall ((var0 AddrRange) (var1 Int) (var2 Int) (var3 Int) (var4 Int) (var5 Int) (var6 Int) (var7 Int) (var8 Heap)) (not (and (and (inv_main59 var8 var7 var6 var5 var4 var3 var2 var1 var0) (not (is-O_Int (readHeap var8 (nthAddrRange var0 var7))))) (is-O_Int (readHeap var8 (nthAddrRange var0 var7)))))))
(assert (forall ((var0 AddrRange) (var1 Int) (var2 Int) (var3 Int) (var4 Int) (var5 Int) (var6 Int) (var7 Int) (var8 Heap)) (not (and (inv_main61 var8 var7 var6 var5 var4 var3 var2 var1 var0) (not (is-O_Int (readHeap var8 (nthAddrRange var0 var7))))))))
(assert (forall ((var0 AddrRange) (var1 Int) (var2 Int) (var3 Int) (var4 Int) (var5 Int) (var6 Int) (var7 Int) (var8 Heap)) (not (and (and (inv_main61 var8 var7 var6 var5 var4 var3 var2 var1 var0) (not (withinHeap var0 (nthAddrRange var0 var7)))) (is-O_Int (readHeap var8 (nthAddrRange var0 var7)))))))
(assert (forall ((var0 AddrRange) (var1 Int) (var2 Int) (var3 Int) (var4 Int) (var5 Int) (var6 Int) (var7 Int) (var8 Heap)) (not (and (and (inv_main61 var8 var7 var6 var5 var4 var3 var2 var1 var0) (not (is-O_Int (readHeap var8 (nthAddrRange var0 var7))))) (is-O_Int (readHeap var8 (nthAddrRange var0 var7)))))))
(assert (forall ((var0 AddrRange) (var1 Int) (var2 Int) (var3 Int) (var4 Int) (var5 Int) (var6 Int) (var7 Int) (var8 Heap)) (not (and (inv_main10 var8 var7 var6 var5 var4 var3 var2 var1 var0) (or (not (<= 0 var4)) (not (<= 0 (+ 1000 (* (- 1) var4)))))))))
(check-sat)
